decision_x1=[0,2];
decision_x2=[0,2];
decision_x3=[0,2];
decision_x4=[0,2];
decision_x5=[0,2];
decision_x6=[0,2];
decision_x7=[0,2];
decision_x8=[0,2];
random_y1=[0,2];
random_y2=[0,2];
constraint_x2_x1=[
0,0,4.7|
0,1,9.6|
0,2,9.2|
1,0,4.4|
1,1,4|
1,2,9.4|
2,0,1.4|
2,1,5.8|
2,2,5.7|
];
constraint_x4_x3=[
0,0,8|
0,1,4.2|
0,2,4.6|
1,0,7.4|
1,1,5.9|
1,2,2.6|
2,0,3.6|
2,1,4.7|
2,2,4.5|
];
constraint_x5_x3=[
0,0,0.47|
0,1,5.3|
0,2,7.8|
1,0,8.3|
1,1,5.9|
1,2,9|
2,0,6.1|
2,1,4.2|
2,2,0.21|
];
constraint_x5_x4=[
0,0,5.4|
0,1,0.81|
0,2,3.9|
1,0,2.2|
1,1,1.8|
1,2,9|
2,0,2.9|
2,1,8.4|
2,2,4|
];
constraint_x6_x2=[
0,0,8.8|
0,1,3.8|
0,2,6.8|
1,0,8.1|
1,1,0.88|
1,2,1.9|
2,0,8.2|
2,1,4.6|
2,2,0.31|
];
constraint_x6_x3=[
0,0,9|
0,1,4.6|
0,2,3|
1,0,0.82|
1,1,1.9|
1,2,3.7|
2,0,9.4|
2,1,6.4|
2,2,4.8|
];
constraint_x6_x5=[
0,0,0.49|
0,1,4.4|
0,2,7.9|
1,0,1.6|
1,1,7.1|
1,2,3.3|
2,0,0.19|
2,1,2.7|
2,2,7.3|
];
constraint_x7_x1=[
0,0,0.56|
0,1,5.4|
0,2,6.4|
1,0,9.5|
1,1,9.6|
1,2,5.7|
2,0,6.5|
2,1,8.4|
2,2,9.9|
];
constraint_x7_x2=[
0,0,6.8|
0,1,0.2|
0,2,9|
1,0,0.29|
1,1,3|
1,2,9.1|
2,0,7|
2,1,10|
2,2,7.2|
];
constraint_x7_x3=[
0,0,3|
0,1,9.4|
0,2,7.7|
1,0,1.6|
1,1,7.1|
1,2,6.6|
2,0,8.4|
2,1,1.1|
2,2,6.8|
];
constraint_x8_x2=[
0,0,1.9|
0,1,5.5|
0,2,3|
1,0,7.8|
1,1,5.2|
1,2,4.7|
2,0,7.2|
2,1,7.5|
2,2,4.9|
];
constraint_x8_x3=[
0,0,0.93|
0,1,8.9|
0,2,0.2|
1,0,0.65|
1,1,4.9|
1,2,4.1|
2,0,3.9|
2,1,10|
2,2,7.6|
];
constraint_x8_x4=[
0,0,2.1|
0,1,5.5|
0,2,8|
1,0,9.9|
1,1,0.29|
1,2,6.2|
2,0,4.7|
2,1,7.2|
2,2,3.1|
];
constraint_x8_x7=[
0,0,7.3|
0,1,8.2|
0,2,8.8|
1,0,8|
1,1,4.9|
1,2,9|
2,0,0.81|
2,1,0.12|
2,2,7.2|
];
constraint_x1_y1=[
0,0,5|
0,1,8.8|
0,2,9.6|
1,0,3.9|
1,1,9.8|
1,2,7.8|
2,0,3|
2,1,7.5|
2,2,8.2|
];
constraint_x2_y2=[
0,0,4.7|
0,1,7.7|
0,2,0.35|
1,0,4.8|
1,1,6.4|
1,2,6.8|
2,0,5.3|
2,1,8|
2,2,2.2|
];
initial_distribution_y1=[0.53,0.15,0.32];
initial_distribution_y2=[0.41,0.022,0.57];
transition_y1=[
0.32,0.33,0.36|
0.38,0.18,0.44|
0.77,0.16,0.067|
];
transition_y2=[
0.092,0.45,0.46|
0.4,0.24,0.36|
0.33,0.11,0.56|
];
